p edge 250 3111
e 1 4
e 1 10
e 1 26
e 1 27
e 1 30
e 1 36
e 1 48
e 1 52
e 1 59
e 1 88
e 1 133
e 1 137
e 1 139
e 1 168
e 1 184
e 1 198
e 1 202
e 1 214
e 1 232
e 1 235
e 1 238
e 1 239
e 1 246
e 2 27
e 2 30
e 2 35
e 2 38
e 2 49
e 2 54
e 2 59
e 2 60
e 2 67
e 2 85
e 2 92
e 2 98
e 2 106
e 2 112
e 2 127
e 2 128
e 2 129
e 2 146
e 2 148
e 2 152
e 2 192
e 2 201
e 2 208
e 2 222
e 2 229
e 2 246
e 3 25
e 3 36
e 3 45
e 3 50
e 3 57
e 3 63
e 3 71
e 3 114
e 3 118
e 3 122
e 3 123
e 3 132
e 3 138
e 3 157
e 3 159
e 3 163
e 3 179
e 3 186
e 3 188
e 3 196
e 3 199
e 3 202
e 3 243
e 4 47
e 4 56
e 4 75
e 4 81
e 4 84
e 4 87
e 4 99
e 4 102
e 4 122
e 4 143
e 4 155
e 4 165
e 4 169
e 4 175
e 4 179
e 4 185
e 4 193
e 4 196
e 4 205
e 4 208
e 4 210
e 4 218
e 4 229
e 4 232
e 4 237
e 4 244
e 4 248
e 5 13
e 5 34
e 5 46
e 5 57
e 5 75
e 5 76
e 5 88
e 5 90
e 5 110
e 5 112
e 5 134
e 5 144
e 5 152
e 5 160
e 5 170
e 5 192
e 5 220
e 5 226
e 5 233
e 6 8
e 6 11
e 6 19
e 6 26
e 6 32
e 6 53
e 6 65
e 6 78
e 6 88
e 6 107
e 6 114
e 6 115
e 6 116
e 6 124
e 6 133
e 6 172
e 6 176
e 6 186
e 6 187
e 6 195
e 6 199
e 6 203
e 6 222
e 6 229
e 6 236
e 7 12
e 7 20
e 7 24
e 7 68
e 7 89
e 7 116
e 7 117
e 7 125
e 7 128
e 7 130
e 7 131
e 7 150
e 7 151
e 7 163
e 7 188
e 7 192
e 7 222
e 7 228
e 7 231
e 8 23
e 8 27
e 8 62
e 8 67
e 8 77
e 8 98
e 8 112
e 8 113
e 8 116
e 8 122
e 8 125
e 8 133
e 8 156
e 8 171
e 8 194
e 8 211
e 8 217
e 8 221
e 9 14
e 9 18
e 9 19
e 9 22
e 9 28
e 9 29
e 9 39
e 9 43
e 9 44
e 9 56
e 9 81
e 9 92
e 9 99
e 9 115
e 9 123
e 9 135
e 9 146
e 9 148
e 9 153
e 9 175
e 9 181
e 9 213
e 9 219
e 9 249
e 10 11
e 10 32
e 10 49
e 10 50
e 10 55
e 10 67
e 10 104
e 10 116
e 10 119
e 10 125
e 10 126
e 10 134
e 10 144
e 10 148
e 10 151
e 10 156
e 10 158
e 10 159
e 10 168
e 10 170
e 10 183
e 10 185
e 10 188
e 10 189
e 10 196
e 10 204
e 10 212
e 10 227
e 10 236
e 10 247
e 11 16
e 11 23
e 11 30
e 11 38
e 11 47
e 11 49
e 11 68
e 11 71
e 11 74
e 11 79
e 11 84
e 11 85
e 11 123
e 11 129
e 11 135
e 11 138
e 11 148
e 11 149
e 11 150
e 11 170
e 11 176
e 11 199
e 11 203
e 11 211
e 11 233
e 12 25
e 12 37
e 12 56
e 12 58
e 12 65
e 12 71
e 12 76
e 12 98
e 12 113
e 12 134
e 12 141
e 12 154
e 12 164
e 12 183
e 12 186
e 12 188
e 12 201
e 12 205
e 12 217
e 12 218
e 12 219
e 12 231
e 12 237
e 12 244
e 13 21
e 13 62
e 13 71
e 13 75
e 13 77
e 13 104
e 13 105
e 13 127
e 13 142
e 13 150
e 13 155
e 13 158
e 13 171
e 13 193
e 13 196
e 13 198
e 13 214
e 13 216
e 13 220
e 13 232
e 13 245
e 14 21
e 14 25
e 14 33
e 14 39
e 14 40
e 14 51
e 14 53
e 14 70
e 14 74
e 14 104
e 14 110
e 14 112
e 14 113
e 14 116
e 14 118
e 14 136
e 14 163
e 14 174
e 14 184
e 14 197
e 14 199
e 14 246
e 15 17
e 15 45
e 15 46
e 15 51
e 15 52
e 15 55
e 15 58
e 15 66
e 15 88
e 15 92
e 15 102
e 15 114
e 15 123
e 15 130
e 15 140
e 15 145
e 15 153
e 15 155
e 15 160
e 15 161
e 15 196
e 15 208
e 15 212
e 15 220
e 15 223
e 15 238
e 15 244
e 15 247
e 15 248
e 16 20
e 16 35
e 16 43
e 16 59
e 16 72
e 16 79
e 16 91
e 16 110
e 16 120
e 16 198
e 16 205
e 16 206
e 16 209
e 16 213
e 16 226
e 17 23
e 17 26
e 17 46
e 17 61
e 17 62
e 17 79
e 17 93
e 17 106
e 17 111
e 17 132
e 17 135
e 17 140
e 17 150
e 17 152
e 17 156
e 17 161
e 17 190
e 17 193
e 17 197
e 17 207
e 17 220
e 18 31
e 18 32
e 18 53
e 18 56
e 18 73
e 18 74
e 18 79
e 18 81
e 18 84
e 18 93
e 18 103
e 18 119
e 18 121
e 18 133
e 18 137
e 18 139
e 18 146
e 18 165
e 18 167
e 18 176
e 18 195
e 18 244
e 19 24
e 19 32
e 19 34
e 19 54
e 19 58
e 19 67
e 19 72
e 19 81
e 19 99
e 19 127
e 19 133
e 19 138
e 19 190
e 19 241
e 19 247
e 19 249
e 19 250
e 20 28
e 20 30
e 20 36
e 20 55
e 20 58
e 20 61
e 20 71
e 20 87
e 20 121
e 20 122
e 20 124
e 20 132
e 20 139
e 20 144
e 20 168
e 20 171
e 20 178
e 20 179
e 20 183
e 20 185
e 20 193
e 20 212
e 21 23
e 21 39
e 21 40
e 21 45
e 21 51
e 21 52
e 21 60
e 21 82
e 21 92
e 21 96
e 21 98
e 21 101
e 21 118
e 21 123
e 21 124
e 21 128
e 21 136
e 21 161
e 21 174
e 21 178
e 21 184
e 21 200
e 21 222
e 21 225
e 21 232
e 22 41
e 22 55
e 22 57
e 22 71
e 22 75
e 22 87
e 22 102
e 22 140
e 22 150
e 22 161
e 22 163
e 22 165
e 22 175
e 22 182
e 22 185
e 22 191
e 22 202
e 22 207
e 22 209
e 22 214
e 22 230
e 22 237
e 22 242
e 23 26
e 23 29
e 23 44
e 23 45
e 23 55
e 23 63
e 23 67
e 23 83
e 23 87
e 23 91
e 23 97
e 23 110
e 23 116
e 23 121
e 23 122
e 23 135
e 23 157
e 23 168
e 23 171
e 23 175
e 23 182
e 23 183
e 23 201
e 23 249
e 24 31
e 24 53
e 24 81
e 24 93
e 24 114
e 24 124
e 24 143
e 24 147
e 24 157
e 24 169
e 24 174
e 24 198
e 24 199
e 24 201
e 24 208
e 24 213
e 24 214
e 24 244
e 25 28
e 25 48
e 25 57
e 25 62
e 25 70
e 25 73
e 25 84
e 25 89
e 25 94
e 25 95
e 25 114
e 25 122
e 25 166
e 25 169
e 25 172
e 25 179
e 25 204
e 25 208
e 25 213
e 25 218
e 25 220
e 25 221
e 25 222
e 25 229
e 25 245
e 25 247
e 26 31
e 26 57
e 26 65
e 26 74
e 26 84
e 26 90
e 26 105
e 26 107
e 26 109
e 26 112
e 26 127
e 26 133
e 26 136
e 26 139
e 26 158
e 26 173
e 26 178
e 26 188
e 26 193
e 26 198
e 26 199
e 26 222
e 26 225
e 26 235
e 26 247
e 26 248
e 27 42
e 27 44
e 27 46
e 27 50
e 27 68
e 27 73
e 27 117
e 27 129
e 27 131
e 27 146
e 27 161
e 27 162
e 27 170
e 27 171
e 27 173
e 27 180
e 27 202
e 27 215
e 27 221
e 28 38
e 28 40
e 28 45
e 28 52
e 28 53
e 28 55
e 28 70
e 28 79
e 28 85
e 28 96
e 28 108
e 28 134
e 28 140
e 28 153
e 28 156
e 28 160
e 28 169
e 28 173
e 28 193
e 28 198
e 28 199
e 28 200
e 28 222
e 28 243
e 28 250
e 29 37
e 29 46
e 29 58
e 29 59
e 29 74
e 29 89
e 29 90
e 29 113
e 29 120
e 29 124
e 29 130
e 29 134
e 29 147
e 29 150
e 29 157
e 29 160
e 29 163
e 29 168
e 29 185
e 29 209
e 29 213
e 30 45
e 30 55
e 30 56
e 30 65
e 30 73
e 30 87
e 30 90
e 30 92
e 30 103
e 30 115
e 30 122
e 30 127
e 30 129
e 30 131
e 30 137
e 30 141
e 30 176
e 30 195
e 30 203
e 30 208
e 30 218
e 30 237
e 30 238
e 30 243
e 30 245
e 30 248
e 31 61
e 31 63
e 31 74
e 31 112
e 31 120
e 31 121
e 31 125
e 31 130
e 31 141
e 31 159
e 31 170
e 31 191
e 31 211
e 31 224
e 31 229
e 31 237
e 31 240
e 31 250
e 32 35
e 32 42
e 32 69
e 32 74
e 32 75
e 32 91
e 32 95
e 32 97
e 32 102
e 32 114
e 32 115
e 32 122
e 32 127
e 32 141
e 32 159
e 32 180
e 32 183
e 32 186
e 32 194
e 32 209
e 33 41
e 33 43
e 33 60
e 33 64
e 33 73
e 33 74
e 33 75
e 33 76
e 33 93
e 33 100
e 33 109
e 33 121
e 33 142
e 33 147
e 33 168
e 33 169
e 33 178
e 33 183
e 33 213
e 33 214
e 33 219
e 33 226
e 33 231
e 33 234
e 33 236
e 33 240
e 33 241
e 34 35
e 34 49
e 34 53
e 34 54
e 34 56
e 34 68
e 34 76
e 34 79
e 34 82
e 34 98
e 34 110
e 34 116
e 34 124
e 34 141
e 34 143
e 34 153
e 34 154
e 34 155
e 34 172
e 34 176
e 34 186
e 34 202
e 34 223
e 34 247
e 35 101
e 35 107
e 35 119
e 35 144
e 35 151
e 35 168
e 35 181
e 35 211
e 35 216
e 35 220
e 35 224
e 35 226
e 35 231
e 36 41
e 36 51
e 36 60
e 36 65
e 36 71
e 36 77
e 36 81
e 36 82
e 36 104
e 36 110
e 36 112
e 36 126
e 36 128
e 36 135
e 36 141
e 36 146
e 36 159
e 36 161
e 36 174
e 36 183
e 36 195
e 36 200
e 36 211
e 36 215
e 36 232
e 36 234
e 36 241
e 36 243
e 36 244
e 36 245
e 37 49
e 37 62
e 37 70
e 37 92
e 37 95
e 37 125
e 37 126
e 37 138
e 37 141
e 37 150
e 37 164
e 37 181
e 37 194
e 37 207
e 37 213
e 37 215
e 37 226
e 37 231
e 38 64
e 38 67
e 38 87
e 38 91
e 38 105
e 38 106
e 38 108
e 38 109
e 38 113
e 38 138
e 38 139
e 38 140
e 38 155
e 38 167
e 38 171
e 38 191
e 38 194
e 38 197
e 38 199
e 38 202
e 38 203
e 38 219
e 38 222
e 38 242
e 38 245
e 39 43
e 39 47
e 39 52
e 39 54
e 39 81
e 39 113
e 39 129
e 39 157
e 39 179
e 39 180
e 39 182
e 39 189
e 39 193
e 39 196
e 39 213
e 39 232
e 39 235
e 39 241
e 40 48
e 40 50
e 40 52
e 40 56
e 40 68
e 40 75
e 40 76
e 40 104
e 40 105
e 40 116
e 40 130
e 40 139
e 40 143
e 40 153
e 40 161
e 40 162
e 40 166
e 40 172
e 40 176
e 40 178
e 40 183
e 40 241
e 40 242
e 40 243
e 40 250
e 41 42
e 41 59
e 41 72
e 41 74
e 41 79
e 41 82
e 41 99
e 41 116
e 41 119
e 41 123
e 41 124
e 41 128
e 41 129
e 41 130
e 41 141
e 41 144
e 41 165
e 41 189
e 41 200
e 41 210
e 41 211
e 41 214
e 41 216
e 41 220
e 41 222
e 41 224
e 41 234
e 41 239
e 41 240
e 41 243
e 42 45
e 42 59
e 42 74
e 42 104
e 42 106
e 42 120
e 42 137
e 42 142
e 42 148
e 42 155
e 42 159
e 42 167
e 42 168
e 42 173
e 42 214
e 42 223
e 42 229
e 42 231
e 42 246
e 42 248
e 43 47
e 43 49
e 43 62
e 43 63
e 43 66
e 43 70
e 43 100
e 43 113
e 43 132
e 43 133
e 43 134
e 43 137
e 43 144
e 43 161
e 43 162
e 43 180
e 43 185
e 43 197
e 43 207
e 43 223
e 43 228
e 43 230
e 43 231
e 43 243
e 44 50
e 44 51
e 44 52
e 44 54
e 44 62
e 44 66
e 44 82
e 44 90
e 44 98
e 44 102
e 44 104
e 44 107
e 44 115
e 44 120
e 44 121
e 44 128
e 44 134
e 44 145
e 44 153
e 44 159
e 44 181
e 44 188
e 44 200
e 45 47
e 45 50
e 45 54
e 45 55
e 45 58
e 45 96
e 45 100
e 45 130
e 45 142
e 45 152
e 45 163
e 45 202
e 45 205
e 45 211
e 45 224
e 45 235
e 45 245
e 45 246
e 45 250
e 46 48
e 46 90
e 46 97
e 46 118
e 46 131
e 46 141
e 46 146
e 46 147
e 46 148
e 46 162
e 46 191
e 46 193
e 46 194
e 46 205
e 46 219
e 46 232
e 47 61
e 47 63
e 47 65
e 47 67
e 47 75
e 47 94
e 47 97
e 47 111
e 47 117
e 47 126
e 47 127
e 47 133
e 47 146
e 47 151
e 47 160
e 47 170
e 47 177
e 47 196
e 47 212
e 47 236
e 47 239
e 47 240
e 47 248
e 48 49
e 48 56
e 48 67
e 48 89
e 48 99
e 48 107
e 48 126
e 48 128
e 48 132
e 48 138
e 48 140
e 48 144
e 48 169
e 48 174
e 48 180
e 48 191
e 48 195
e 48 196
e 48 201
e 48 211
e 48 223
e 48 233
e 48 243
e 49 61
e 49 71
e 49 85
e 49 93
e 49 128
e 49 134
e 49 160
e 49 168
e 49 178
e 49 182
e 49 183
e 49 187
e 49 225
e 49 232
e 49 246
e 50 59
e 50 63
e 50 67
e 50 70
e 50 73
e 50 78
e 50 88
e 50 102
e 50 115
e 50 121
e 50 124
e 50 134
e 50 136
e 50 137
e 50 142
e 50 147
e 50 152
e 50 175
e 50 181
e 50 195
e 50 207
e 50 228
e 50 244
e 50 248
e 51 52
e 51 68
e 51 73
e 51 76
e 51 79
e 51 88
e 51 106
e 51 108
e 51 119
e 51 123
e 51 127
e 51 137
e 51 140
e 51 145
e 51 149
e 51 162
e 51 165
e 51 171
e 51 187
e 51 207
e 51 216
e 51 247
e 52 61
e 52 62
e 52 68
e 52 79
e 52 82
e 52 84
e 52 86
e 52 99
e 52 106
e 52 113
e 52 135
e 52 150
e 52 161
e 52 165
e 52 171
e 52 175
e 52 184
e 52 187
e 52 204
e 52 208
e 52 214
e 52 218
e 52 231
e 52 239
e 53 63
e 53 77
e 53 78
e 53 85
e 53 101
e 53 117
e 53 119
e 53 120
e 53 123
e 53 124
e 53 137
e 53 144
e 53 146
e 53 176
e 53 187
e 53 190
e 53 205
e 53 209
e 53 212
e 53 221
e 53 222
e 53 245
e 54 69
e 54 78
e 54 84
e 54 86
e 54 88
e 54 104
e 54 106
e 54 111
e 54 116
e 54 117
e 54 136
e 54 140
e 54 145
e 54 147
e 54 149
e 54 154
e 54 161
e 54 183
e 54 188
e 54 191
e 54 209
e 54 210
e 54 211
e 54 219
e 54 230
e 54 242
e 55 58
e 55 61
e 55 62
e 55 83
e 55 87
e 55 88
e 55 89
e 55 127
e 55 141
e 55 146
e 55 150
e 55 155
e 55 165
e 55 179
e 55 215
e 55 221
e 55 227
e 55 238
e 55 245
e 55 246
e 56 61
e 56 62
e 56 65
e 56 72
e 56 75
e 56 88
e 56 97
e 56 128
e 56 133
e 56 151
e 56 152
e 56 170
e 56 175
e 56 219
e 56 220
e 56 238
e 56 243
e 57 58
e 57 63
e 57 91
e 57 99
e 57 112
e 57 124
e 57 128
e 57 130
e 57 131
e 57 134
e 57 144
e 57 146
e 57 147
e 57 153
e 57 164
e 57 184
e 57 201
e 57 212
e 57 214
e 57 222
e 57 234
e 57 238
e 57 242
e 58 68
e 58 83
e 58 93
e 58 114
e 58 125
e 58 127
e 58 131
e 58 147
e 58 152
e 58 166
e 58 169
e 58 184
e 58 191
e 58 202
e 58 206
e 58 207
e 58 223
e 58 227
e 58 248
e 59 64
e 59 66
e 59 83
e 59 90
e 59 91
e 59 103
e 59 109
e 59 145
e 59 152
e 59 153
e 59 164
e 59 172
e 59 175
e 59 196
e 59 198
e 59 210
e 59 234
e 59 248
e 59 249
e 60 73
e 60 111
e 60 127
e 60 166
e 60 167
e 60 170
e 60 172
e 60 191
e 60 195
e 60 224
e 60 236
e 61 68
e 61 69
e 61 73
e 61 90
e 61 99
e 61 105
e 61 122
e 61 126
e 61 132
e 61 140
e 61 149
e 61 156
e 61 158
e 61 159
e 61 190
e 61 192
e 61 206
e 61 210
e 61 217
e 61 228
e 61 230
e 61 242
e 62 64
e 62 78
e 62 83
e 62 90
e 62 104
e 62 113
e 62 118
e 62 126
e 62 137
e 62 141
e 62 158
e 62 163
e 62 164
e 62 176
e 62 180
e 62 189
e 62 190
e 62 192
e 62 207
e 62 226
e 62 241
e 63 64
e 63 66
e 63 89
e 63 124
e 63 136
e 63 140
e 63 147
e 63 191
e 63 202
e 63 209
e 63 215
e 63 219
e 63 229
e 63 248
e 64 111
e 64 116
e 64 123
e 64 130
e 64 134
e 64 150
e 64 159
e 64 167
e 64 175
e 64 178
e 64 185
e 64 189
e 64 195
e 64 212
e 64 241
e 64 246
e 65 75
e 65 80
e 65 81
e 65 86
e 65 87
e 65 94
e 65 105
e 65 107
e 65 114
e 65 126
e 65 142
e 65 147
e 65 151
e 65 192
e 65 193
e 65 204
e 65 205
e 65 207
e 65 215
e 65 221
e 65 234
e 65 243
e 65 245
e 66 75
e 66 83
e 66 87
e 66 90
e 66 103
e 66 118
e 66 122
e 66 126
e 66 133
e 66 135
e 66 159
e 66 161
e 66 169
e 66 170
e 66 183
e 66 186
e 66 187
e 66 193
e 66 194
e 66 200
e 66 218
e 66 229
e 66 233
e 66 238
e 66 245
e 66 250
e 67 76
e 67 84
e 67 105
e 67 118
e 67 127
e 67 144
e 67 150
e 67 151
e 67 166
e 67 174
e 67 177
e 67 184
e 67 192
e 67 203
e 67 213
e 67 238
e 67 239
e 67 240
e 68 78
e 68 79
e 68 86
e 68 88
e 68 90
e 68 149
e 68 155
e 68 162
e 68 165
e 68 177
e 68 203
e 68 210
e 69 70
e 69 87
e 69 96
e 69 121
e 69 129
e 69 133
e 69 140
e 69 147
e 69 149
e 69 156
e 69 166
e 69 174
e 69 189
e 69 192
e 69 222
e 69 223
e 69 225
e 69 238
e 69 249
e 70 76
e 70 81
e 70 84
e 70 87
e 70 100
e 70 112
e 70 130
e 70 136
e 70 137
e 70 157
e 70 174
e 70 220
e 71 88
e 71 98
e 71 99
e 71 113
e 71 117
e 71 121
e 71 125
e 71 127
e 71 137
e 71 148
e 71 157
e 71 184
e 71 194
e 71 201
e 71 218
e 71 236
e 71 243
e 71 249
e 72 79
e 72 82
e 72 88
e 72 92
e 72 93
e 72 110
e 72 121
e 72 129
e 72 133
e 72 137
e 72 140
e 72 159
e 72 160
e 72 172
e 72 208
e 72 209
e 72 215
e 72 222
e 72 228
e 72 230
e 72 241
e 73 78
e 73 80
e 73 106
e 73 109
e 73 120
e 73 132
e 73 135
e 73 165
e 73 168
e 73 189
e 73 206
e 73 219
e 73 222
e 73 223
e 73 228
e 73 229
e 73 241
e 74 80
e 74 81
e 74 89
e 74 110
e 74 111
e 74 124
e 74 128
e 74 137
e 74 155
e 74 157
e 74 166
e 74 209
e 74 238
e 74 248
e 75 84
e 75 87
e 75 88
e 75 91
e 75 94
e 75 101
e 75 109
e 75 121
e 75 124
e 75 126
e 75 138
e 75 142
e 75 155
e 75 179
e 75 196
e 75 201
e 75 202
e 75 210
e 75 217
e 75 224
e 75 248
e 76 92
e 76 102
e 76 105
e 76 106
e 76 113
e 76 115
e 76 129
e 76 135
e 76 138
e 76 151
e 76 166
e 76 175
e 76 176
e 76 192
e 76 207
e 76 208
e 76 209
e 76 210
e 76 214
e 76 222
e 76 223
e 76 233
e 76 248
e 77 78
e 77 80
e 77 87
e 77 93
e 77 132
e 77 138
e 77 147
e 77 163
e 77 165
e 77 173
e 77 174
e 77 176
e 77 179
e 77 180
e 77 202
e 77 213
e 77 214
e 77 217
e 77 222
e 77 223
e 77 232
e 77 239
e 77 244
e 78 86
e 78 104
e 78 110
e 78 112
e 78 113
e 78 114
e 78 125
e 78 128
e 78 151
e 78 157
e 78 160
e 78 170
e 78 173
e 78 181
e 78 183
e 78 186
e 78 202
e 78 212
e 78 214
e 78 226
e 78 229
e 78 231
e 78 239
e 78 244
e 79 90
e 79 93
e 79 94
e 79 98
e 79 108
e 79 128
e 79 138
e 79 162
e 79 163
e 79 166
e 79 184
e 79 186
e 79 191
e 79 192
e 79 198
e 79 220
e 79 225
e 79 248
e 80 84
e 80 121
e 80 122
e 80 126
e 80 129
e 80 144
e 80 159
e 80 179
e 80 189
e 80 192
e 80 197
e 80 201
e 80 205
e 80 209
e 80 212
e 80 213
e 80 214
e 80 220
e 80 228
e 80 234
e 80 235
e 80 236
e 80 249
e 81 96
e 81 100
e 81 103
e 81 109
e 81 111
e 81 113
e 81 116
e 81 123
e 81 134
e 81 135
e 81 141
e 81 145
e 81 170
e 81 174
e 81 183
e 81 194
e 81 195
e 81 232
e 81 233
e 81 234
e 82 86
e 82 91
e 82 99
e 82 108
e 82 115
e 82 129
e 82 137
e 82 160
e 82 186
e 82 188
e 82 200
e 82 214
e 82 219
e 82 222
e 82 228
e 82 230
e 82 235
e 82 246
e 83 92
e 83 114
e 83 122
e 83 124
e 83 129
e 83 131
e 83 139
e 83 148
e 83 151
e 83 156
e 83 159
e 83 181
e 83 194
e 83 195
e 83 199
e 83 203
e 83 208
e 83 216
e 83 221
e 83 225
e 83 241
e 83 243
e 83 249
e 84 87
e 84 88
e 84 94
e 84 105
e 84 111
e 84 116
e 84 142
e 84 150
e 84 179
e 84 184
e 84 191
e 84 193
e 84 221
e 84 224
e 84 243
e 85 89
e 85 91
e 85 97
e 85 104
e 85 116
e 85 134
e 85 144
e 85 173
e 85 186
e 85 196
e 85 229
e 85 233
e 85 239
e 85 242
e 85 249
e 86 92
e 86 113
e 86 117
e 86 178
e 86 182
e 86 183
e 86 191
e 86 192
e 86 231
e 86 234
e 86 236
e 87 94
e 87 120
e 87 133
e 87 142
e 87 148
e 87 150
e 87 158
e 87 186
e 87 198
e 87 201
e 87 231
e 87 239
e 87 241
e 87 242
e 88 102
e 88 110
e 88 114
e 88 136
e 88 141
e 88 145
e 88 146
e 88 149
e 88 153
e 88 173
e 88 202
e 88 216
e 88 239
e 89 102
e 89 119
e 89 120
e 89 139
e 89 148
e 89 152
e 89 154
e 89 155
e 89 160
e 89 162
e 89 170
e 89 176
e 89 189
e 89 200
e 89 210
e 89 214
e 89 228
e 89 229
e 89 230
e 89 231
e 89 236
e 89 249
e 90 92
e 90 126
e 90 129
e 90 138
e 90 141
e 90 142
e 90 154
e 90 169
e 90 171
e 90 175
e 90 176
e 90 194
e 90 198
e 90 201
e 90 206
e 90 209
e 90 210
e 90 226
e 90 229
e 90 237
e 90 245
e 90 246
e 91 92
e 91 94
e 91 97
e 91 152
e 91 165
e 91 168
e 91 185
e 91 194
e 91 218
e 91 220
e 91 223
e 91 235
e 91 240
e 91 247
e 92 95
e 92 102
e 92 147
e 92 150
e 92 157
e 92 159
e 92 177
e 92 195
e 92 205
e 92 212
e 92 230
e 93 100
e 93 107
e 93 117
e 93 124
e 93 150
e 93 175
e 93 192
e 93 231
e 93 234
e 93 239
e 94 113
e 94 121
e 94 133
e 94 138
e 94 140
e 94 162
e 94 176
e 94 182
e 94 199
e 94 208
e 94 211
e 94 214
e 94 230
e 94 241
e 94 246
e 94 249
e 95 115
e 95 132
e 95 136
e 95 150
e 95 163
e 95 167
e 95 193
e 95 212
e 95 230
e 95 241
e 96 99
e 96 107
e 96 112
e 96 118
e 96 132
e 96 164
e 96 168
e 96 171
e 96 177
e 96 195
e 96 211
e 96 212
e 96 218
e 96 222
e 96 232
e 96 240
e 96 245
e 97 107
e 97 108
e 97 119
e 97 124
e 97 127
e 97 128
e 97 144
e 97 155
e 97 157
e 97 160
e 97 180
e 97 192
e 97 198
e 97 202
e 97 215
e 97 224
e 97 234
e 97 247
e 97 249
e 98 103
e 98 104
e 98 123
e 98 145
e 98 148
e 98 169
e 98 178
e 98 179
e 98 198
e 98 228
e 99 103
e 99 104
e 99 120
e 99 134
e 99 146
e 99 152
e 99 153
e 99 160
e 99 170
e 99 172
e 99 193
e 99 194
e 99 210
e 99 212
e 99 231
e 100 103
e 100 112
e 100 127
e 100 131
e 100 137
e 100 150
e 100 157
e 100 158
e 100 167
e 100 181
e 100 234
e 100 235
e 101 102
e 101 122
e 101 139
e 101 148
e 101 155
e 101 178
e 101 195
e 101 198
e 101 225
e 101 228
e 101 230
e 101 235
e 101 246
e 102 110
e 102 111
e 102 112
e 102 139
e 102 158
e 102 169
e 102 202
e 102 211
e 102 225
e 102 227
e 102 238
e 102 249
e 103 115
e 103 118
e 103 147
e 103 188
e 103 206
e 103 213
e 103 214
e 103 217
e 103 227
e 103 240
e 104 110
e 104 111
e 104 147
e 104 160
e 104 170
e 104 179
e 104 183
e 104 184
e 104 194
e 104 213
e 104 226
e 104 242
e 104 245
e 104 246
e 105 108
e 105 113
e 105 120
e 105 137
e 105 148
e 105 150
e 105 156
e 105 170
e 105 189
e 105 196
e 105 205
e 105 213
e 105 215
e 105 225
e 105 237
e 105 244
e 105 245
e 106 131
e 106 132
e 106 147
e 106 156
e 106 163
e 106 175
e 106 176
e 106 181
e 106 234
e 106 244
e 106 249
e 107 110
e 107 112
e 107 134
e 107 136
e 107 141
e 107 148
e 107 150
e 107 152
e 107 156
e 107 160
e 107 166
e 107 182
e 107 189
e 107 190
e 107 199
e 107 209
e 107 211
e 107 212
e 107 218
e 107 241
e 108 117
e 108 128
e 108 154
e 108 166
e 108 171
e 108 172
e 108 177
e 108 194
e 108 222
e 108 231
e 108 238
e 108 249
e 109 110
e 109 119
e 109 122
e 109 126
e 109 128
e 109 136
e 109 154
e 109 181
e 109 191
e 109 216
e 110 124
e 110 128
e 110 148
e 110 160
e 110 168
e 110 192
e 110 197
e 110 226
e 110 230
e 110 235
e 111 129
e 111 138
e 111 145
e 111 147
e 111 158
e 111 164
e 111 197
e 111 199
e 111 203
e 111 209
e 111 210
e 111 216
e 111 226
e 111 239
e 111 245
e 112 125
e 112 139
e 112 148
e 112 154
e 112 168
e 112 194
e 112 196
e 112 206
e 112 215
e 112 216
e 112 238
e 112 239
e 112 247
e 112 250
e 113 120
e 113 143
e 113 154
e 113 182
e 113 188
e 113 202
e 113 209
e 113 215
e 113 224
e 114 122
e 114 123
e 114 146
e 114 147
e 114 153
e 114 159
e 114 161
e 114 165
e 114 181
e 114 182
e 114 200
e 114 201
e 114 226
e 114 232
e 114 235
e 114 249
e 115 131
e 115 151
e 115 153
e 115 159
e 115 174
e 115 176
e 115 183
e 115 186
e 115 191
e 115 203
e 115 205
e 115 226
e 115 231
e 115 244
e 115 245
e 115 247
e 116 131
e 116 144
e 116 145
e 116 149
e 116 151
e 116 159
e 116 170
e 116 184
e 116 190
e 116 206
e 116 220
e 116 221
e 116 225
e 116 227
e 116 228
e 116 231
e 116 234
e 116 241
e 117 121
e 117 130
e 117 131
e 117 133
e 117 136
e 117 137
e 117 144
e 117 155
e 117 157
e 117 159
e 117 160
e 117 182
e 117 185
e 117 190
e 117 198
e 117 202
e 117 213
e 117 235
e 117 248
e 117 250
e 118 135
e 118 137
e 118 155
e 118 166
e 118 170
e 118 179
e 118 232
e 118 235
e 118 248
e 119 128
e 119 135
e 119 138
e 119 139
e 119 140
e 119 150
e 119 159
e 119 195
e 119 207
e 119 209
e 119 211
e 119 213
e 119 226
e 119 241
e 120 127
e 120 142
e 120 149
e 120 155
e 120 167
e 120 168
e 120 174
e 120 180
e 120 182
e 120 203
e 120 222
e 120 226
e 120 228
e 120 246
e 121 131
e 121 136
e 121 156
e 121 166
e 121 168
e 121 172
e 121 173
e 121 179
e 121 192
e 121 194
e 121 196
e 121 241
e 121 243
e 122 131
e 122 138
e 122 144
e 122 150
e 122 155
e 122 198
e 122 228
e 122 244
e 123 143
e 123 145
e 123 158
e 123 198
e 123 205
e 123 215
e 123 232
e 123 240
e 123 242
e 123 243
e 124 134
e 124 157
e 124 163
e 124 178
e 124 179
e 124 184
e 124 199
e 124 204
e 124 207
e 124 224
e 124 233
e 124 236
e 124 239
e 125 131
e 125 141
e 125 151
e 125 155
e 125 175
e 125 178
e 125 181
e 125 183
e 125 187
e 125 190
e 125 201
e 125 210
e 125 213
e 125 222
e 125 230
e 125 233
e 126 146
e 126 172
e 126 179
e 126 186
e 126 202
e 126 206
e 126 226
e 127 145
e 127 151
e 127 169
e 127 176
e 127 192
e 127 205
e 127 208
e 127 214
e 127 218
e 127 219
e 127 221
e 127 226
e 127 230
e 128 135
e 128 181
e 128 187
e 128 199
e 128 205
e 128 214
e 128 232
e 128 236
e 128 238
e 128 239
e 129 140
e 129 148
e 129 172
e 129 181
e 129 184
e 129 197
e 129 216
e 129 222
e 129 224
e 129 229
e 130 140
e 130 142
e 130 149
e 130 157
e 130 158
e 130 166
e 130 183
e 130 186
e 130 202
e 130 203
e 130 235
e 130 237
e 130 238
e 130 240
e 130 246
e 130 247
e 131 145
e 131 147
e 131 149
e 131 154
e 131 191
e 131 196
e 131 207
e 131 210
e 131 214
e 131 223
e 131 227
e 131 229
e 131 235
e 131 242
e 132 135
e 132 140
e 132 165
e 132 171
e 132 177
e 132 201
e 132 210
e 132 211
e 132 213
e 132 215
e 132 225
e 132 226
e 132 240
e 133 134
e 133 140
e 133 149
e 133 155
e 133 160
e 133 180
e 133 193
e 133 195
e 133 219
e 133 236
e 133 247
e 134 143
e 134 168
e 134 195
e 134 216
e 134 229
e 134 232
e 134 237
e 134 242
e 135 144
e 135 154
e 135 159
e 135 164
e 135 171
e 135 174
e 135 177
e 135 183
e 135 189
e 135 212
e 135 232
e 135 244
e 135 248
e 136 141
e 136 153
e 136 158
e 136 166
e 136 178
e 136 179
e 136 183
e 136 189
e 136 194
e 136 195
e 136 206
e 136 214
e 136 225
e 136 227
e 136 229
e 136 239
e 136 246
e 137 138
e 137 139
e 137 142
e 137 146
e 137 203
e 137 216
e 137 230
e 137 232
e 137 234
e 137 237
e 137 243
e 137 244
e 137 246
e 138 139
e 138 151
e 138 165
e 138 166
e 138 171
e 138 183
e 138 184
e 138 212
e 138 213
e 138 234
e 138 238
e 138 243
e 138 245
e 138 246
e 139 144
e 139 147
e 139 155
e 139 161
e 139 171
e 139 174
e 139 176
e 139 183
e 139 186
e 139 191
e 139 196
e 139 202
e 139 204
e 139 210
e 139 226
e 139 228
e 139 245
e 140 141
e 140 153
e 140 170
e 140 176
e 140 182
e 140 188
e 140 192
e 140 194
e 140 197
e 140 198
e 140 207
e 140 220
e 140 234
e 140 242
e 140 248
e 141 144
e 141 153
e 141 154
e 141 162
e 141 171
e 141 176
e 141 178
e 141 180
e 141 205
e 141 208
e 141 209
e 141 238
e 141 239
e 141 247
e 141 249
e 142 154
e 142 167
e 142 183
e 142 204
e 142 212
e 142 215
e 142 217
e 142 232
e 142 240
e 142 241
e 143 157
e 143 174
e 143 178
e 143 185
e 143 188
e 143 194
e 143 209
e 143 250
e 144 189
e 144 190
e 144 196
e 144 215
e 144 227
e 145 146
e 145 153
e 145 154
e 145 162
e 145 181
e 145 184
e 145 197
e 145 223
e 145 242
e 145 243
e 146 184
e 146 187
e 146 188
e 146 246
e 147 172
e 147 174
e 147 177
e 147 178
e 147 186
e 147 194
e 147 195
e 147 199
e 147 215
e 147 220
e 147 226
e 147 238
e 148 153
e 148 162
e 148 176
e 148 183
e 148 184
e 148 192
e 148 193
e 148 196
e 148 236
e 148 237
e 148 238
e 148 250
e 149 159
e 149 173
e 149 176
e 149 202
e 149 205
e 149 209
e 149 210
e 149 212
e 149 215
e 149 232
e 149 241
e 149 244
e 150 169
e 150 171
e 150 186
e 150 212
e 150 236
e 150 240
e 151 166
e 151 169
e 151 175
e 151 190
e 151 201
e 151 203
e 151 221
e 151 222
e 151 223
e 151 226
e 151 230
e 151 233
e 151 236
e 151 239
e 151 244
e 151 249
e 152 168
e 152 188
e 152 190
e 152 206
e 152 217
e 152 239
e 152 247
e 153 154
e 153 156
e 153 158
e 153 168
e 153 173
e 153 174
e 153 187
e 153 200
e 153 206
e 153 217
e 153 248
e 154 160
e 154 161
e 154 170
e 154 197
e 154 202
e 154 217
e 154 220
e 154 240
e 155 187
e 155 197
e 155 203
e 155 207
e 155 210
e 155 212
e 155 216
e 155 227
e 155 232
e 155 239
e 155 245
e 155 247
e 156 157
e 156 160
e 156 213
e 156 217
e 156 221
e 156 226
e 156 231
e 156 232
e 157 165
e 157 167
e 157 172
e 157 175
e 157 212
e 157 214
e 157 218
e 157 234
e 157 247
e 158 175
e 158 177
e 158 178
e 158 188
e 158 190
e 158 201
e 158 219
e 158 238
e 158 243
e 158 247
e 159 162
e 159 176
e 159 208
e 159 209
e 159 217
e 159 225
e 159 227
e 159 228
e 159 234
e 159 245
e 159 250
e 160 163
e 160 172
e 160 186
e 160 192
e 160 193
e 160 195
e 160 196
e 160 216
e 160 231
e 160 234
e 160 248
e 161 185
e 161 207
e 161 208
e 161 223
e 161 244
e 162 165
e 162 180
e 162 183
e 162 188
e 162 198
e 162 220
e 162 229
e 163 167
e 163 173
e 163 176
e 163 179
e 163 188
e 163 205
e 163 215
e 163 218
e 163 237
e 163 241
e 163 244
e 164 185
e 164 191
e 164 211
e 164 235
e 165 173
e 165 199
e 165 209
e 165 211
e 165 216
e 165 234
e 165 237
e 165 240
e 165 247
e 166 184
e 166 189
e 166 194
e 166 208
e 166 211
e 166 215
e 166 223
e 166 245
e 167 173
e 167 179
e 167 204
e 168 173
e 168 175
e 168 187
e 168 192
e 168 214
e 168 216
e 168 218
e 168 243
e 169 184
e 169 202
e 169 208
e 169 227
e 169 242
e 169 249
e 170 177
e 170 184
e 170 194
e 170 214
e 170 231
e 170 238
e 171 187
e 171 192
e 171 195
e 171 199
e 171 230
e 171 236
e 172 179
e 172 196
e 172 205
e 172 214
e 172 227
e 172 246
e 173 177
e 173 197
e 173 208
e 173 213
e 173 222
e 174 176
e 174 186
e 174 206
e 174 215
e 174 224
e 174 239
e 175 190
e 175 194
e 175 238
e 176 225
e 176 226
e 176 228
e 176 231
e 176 239
e 176 240
e 177 186
e 177 194
e 177 213
e 177 215
e 177 238
e 177 239
e 177 240
e 177 243
e 178 180
e 178 218
e 178 229
e 178 231
e 178 239
e 179 183
e 179 186
e 179 196
e 179 200
e 179 204
e 179 225
e 179 228
e 179 231
e 180 196
e 180 210
e 180 211
e 180 214
e 180 228
e 180 231
e 180 247
e 181 184
e 181 191
e 181 192
e 181 209
e 181 212
e 181 213
e 181 228
e 182 192
e 182 196
e 182 207
e 182 213
e 182 227
e 182 232
e 182 236
e 182 247
e 182 250
e 183 187
e 183 205
e 183 212
e 183 230
e 183 236
e 183 238
e 183 241
e 184 186
e 184 223
e 184 233
e 184 237
e 185 197
e 185 199
e 185 201
e 185 205
e 185 212
e 185 216
e 185 217
e 185 223
e 185 228
e 186 201
e 186 202
e 186 205
e 186 214
e 186 217
e 186 226
e 186 227
e 186 242
e 187 192
e 187 207
e 187 231
e 187 240
e 187 245
e 188 199
e 188 203
e 188 210
e 188 211
e 188 222
e 188 233
e 188 241
e 189 198
e 189 213
e 189 214
e 189 219
e 189 228
e 189 232
e 189 239
e 189 240
e 189 241
e 189 242
e 189 244
e 190 192
e 190 194
e 190 202
e 190 205
e 190 219
e 190 220
e 190 232
e 190 238
e 191 192
e 191 204
e 191 221
e 191 239
e 192 200
e 192 215
e 192 216
e 192 225
e 192 235
e 192 244
e 192 249
e 193 198
e 193 204
e 193 211
e 193 215
e 193 220
e 193 228
e 193 239
e 193 241
e 193 246
e 194 203
e 195 196
e 195 233
e 195 245
e 196 198
e 196 202
e 196 208
e 196 214
e 196 223
e 196 227
e 197 221
e 197 228
e 197 230
e 197 235
e 197 246
e 198 204
e 198 213
e 198 231
e 198 236
e 198 244
e 199 209
e 199 216
e 199 217
e 199 246
e 199 248
e 200 214
e 200 216
e 200 221
e 200 223
e 200 237
e 200 249
e 201 206
e 201 239
e 202 203
e 202 211
e 202 222
e 203 216
e 203 219
e 203 233
e 203 239
e 203 243
e 203 250
e 204 215
e 204 217
e 204 223
e 204 229
e 204 237
e 205 206
e 205 215
e 205 217
e 205 233
e 205 249
e 206 220
e 206 233
e 206 240
e 207 210
e 207 239
e 208 220
e 208 227
e 209 215
e 209 225
e 209 232
e 209 238
e 209 247
e 210 217
e 210 220
e 210 221
e 210 231
e 211 212
e 211 216
e 211 225
e 211 246
e 211 247
e 211 249
e 212 220
e 212 226
e 213 234
e 213 235
e 213 245
e 214 222
e 214 225
e 214 230
e 214 231
e 214 238
e 214 239
e 214 248
e 214 249
e 215 221
e 215 226
e 216 231
e 216 234
e 216 249
e 217 227
e 217 235
e 218 219
e 218 244
e 219 224
e 219 237
e 220 226
e 220 232
e 220 234
e 220 235
e 220 238
e 220 239
e 220 243
e 221 234
e 221 243
e 222 230
e 222 248
e 222 249
e 223 236
e 224 225
e 224 229
e 224 239
e 224 240
e 225 229
e 225 240
e 225 242
e 225 243
e 226 235
e 226 249
e 227 228
e 227 234
e 227 243
e 227 249
e 228 230
e 228 233
e 229 238
e 230 231
e 230 234
e 230 239
e 230 247
e 230 250
e 231 244
e 232 239
e 232 243
e 233 236
e 233 240
e 233 249
e 234 245
e 236 240
e 237 238
e 237 241
e 237 250
e 238 249
e 239 250
e 240 247
e 241 244
e 241 248
e 242 243
e 243 248
e 244 249
